500
750
600
600
598
597
597
597
596
595
594
594
593
592
592
591
591
591
590
590
588
587
585
585
584
583
582
579
578
577
576
575
575
575
573
573
573
572
571
571
571
571
571
569
565
564
563
562
561
560
560
557
556
556
554
554
551
550
549
549
548
547
546
546
545
544
542
542
542
541
536
535
535
533
533
533
531
531
527
526
526
523
522
522
521
521
520
520
518
518
517
516
515
515
514
514
514
513
513
512
512
511
510
509
508
508
507
507
506
505
503
501
501
500
499
499
498
497
495
495
494
492
492
492
491
491
490
489
489
489
488
487
487
485
485
484
482
480
479
477
476
475
475
474
472
471
470
470
469
469
469
469
469
466
466
466
465
464
464
461
461
459
458
457
457
456
455
454
454
453
450
449
449
448
448
446
446
446
446
445
444
443
441
438
438
438
435
433
432
432
432
432
431
427
425
422
421
420
419
418
418
417
417
417
416
414
414
414
413
410
409
408
408
408
407
407
406
406
405
405
404
403
402
402
401
401
400
400
400
399
396
396
395
395
395
394
393
392
391
390
390
389
389
388
383
382
381
381
381
379
379
379
378
376
376
376
376
375
370
369
369
368
368
367
367
367
367
366
366
365
365
364
364
364
363
362
362
360
360
356
356
355
355
352
351
348
348
348
347
346
345
344
343
343
341
341
340
340
338
338
338
337
336
336
336
334
332
330
329
328
326
322
322
320
320
320
320
318
318
317
316
312
311
311
309
309
305
303
303
302
302
302
301
301
301
299
299
299
298
298
297
296
295
294
293
293
290
289
288
287
286
286
284
283
281
281
280
279
277
275
274
274
273
272
272
271
270
269
267
266
264
261
258
258
258
255
255
254
253
253
253
252
250
250
250
249
247
247
247
245
245
244
243
242
242
239
239
238
237
236
236
235
229
228
228
227
226
226
226
226
225
224
224
223
223
222
222
222
221
221
220
219
218
218
214
213
213
212
212
212
211
210
208
208
208
207
206
206
205
205
202
202
201
199
198
198
196
190
189
188
188
187
185
183
181
180
179
178
177
177
176
175
174
173
173
171
171
171
170
170
169
168
168
168
168
166
166
166
164
163
163
162
160
158
158
158
158
158
157
156
156
155
155
154
154
154
154
153
152
152
151
151
